(set-logic QF_SLIA)
(declare-fun var0 () String)
(assert (str.in_re var0 (re.++ ((_ re.loop 11 792) (re.++ (re.union (str.to_re "{R~") (re.union (str.to_re "\u0022^7") (re.union (str.to_re "fn=") (str.to_re "x:F")))) (re.++ (re.union (str.to_re "Y") (re.union (str.to_re "~F#") (re.union (str.to_re "VGa") (str.to_re "@")))) (re.++ (re.union (str.to_re "/V") (re.union (str.to_re "_8") (re.union (str.to_re "5") (str.to_re "fs")))) (re.union (str.to_re "H;*") (re.union (str.to_re "*") (re.union (str.to_re "O|") (str.to_re "Xb")))))))) (re.++ ((_ re.loop 9 570) (re.++ (re.union (str.to_re "E{") (re.union (str.to_re "76") (re.union (str.to_re "^") (str.to_re "B<")))) (re.++ (re.union (str.to_re "X") (re.union (str.to_re "z") (re.union (str.to_re "W$") (str.to_re "AH")))) (re.++ (re.union (str.to_re "=") (re.union (str.to_re "g%") (re.union (str.to_re "`{\\") (str.to_re "a")))) (re.union (str.to_re "<]<") (re.union (str.to_re "#D") (re.union (str.to_re "I;B") (str.to_re "[qf")))))))) (re.++ ((_ re.loop 8 924) (re.++ (re.union (str.to_re "[") (re.union (str.to_re "s\\t") (re.union (str.to_re "PS") (str.to_re "d$")))) (re.++ (re.union (str.to_re "F0") (re.union (str.to_re "e$7") (re.union (str.to_re ">r#") (str.to_re "j{u")))) (re.++ (re.union (str.to_re "D?") (re.union (str.to_re "_") (re.union (str.to_re ",u") (str.to_re "+>[")))) (re.union (str.to_re ")HT") (re.union (str.to_re "8/0") (re.union (str.to_re "e>u") (str.to_re "#.")))))))) ((_ re.loop 16 94) (re.++ (re.union (str.to_re "U7{") (re.union (str.to_re "a") (re.union (str.to_re "p5") (str.to_re ">m~")))) (re.++ (re.union (str.to_re "p") (re.union (str.to_re "*_e") (re.union (str.to_re ";2") (str.to_re "@")))) (re.++ (re.union (str.to_re "c") (re.union (str.to_re "-") (re.union (str.to_re ";er") (str.to_re "b+;")))) (re.union (str.to_re "7XP") (re.union (str.to_re "y") (re.union (str.to_re "UT") (str.to_re "+")))))))))))))
(assert (not (str.in_re var0 (re.++ ((_ re.loop 8 63) (re.++ (re.union (str.to_re "7l") (re.union (str.to_re "X+") (re.union (str.to_re "_V") (str.to_re "c><")))) (re.++ (re.union (str.to_re "jTU") (re.union (str.to_re "OJ") (re.union (str.to_re "Q") (str.to_re "@)E")))) (re.++ (re.union (str.to_re "&") (re.union (str.to_re "BFm") (re.union (str.to_re "%)\u0022") (str.to_re "Y%t")))) (re.union (str.to_re "k\u0022") (re.union (str.to_re "jrK") (re.union (str.to_re "31") (str.to_re "*e")))))))) (re.++ ((_ re.loop 3 790) (re.++ (re.union (str.to_re "]m'") (re.union (str.to_re "T") (re.union (str.to_re "gY") (str.to_re "j")))) (re.++ (re.union (str.to_re "3FV") (re.union (str.to_re "v<") (re.union (str.to_re ",bg") (str.to_re "eS")))) (re.++ (re.union (str.to_re "hH") (re.union (str.to_re "@gg") (re.union (str.to_re "I") (str.to_re "z")))) (re.union (str.to_re "@\u0022") (re.union (str.to_re "`Qq") (re.union (str.to_re ":q\u0022") (str.to_re "-b")))))))) (re.++ ((_ re.loop 9 707) (re.++ (re.union (str.to_re "<-&") (re.union (str.to_re "#") (re.union (str.to_re "z#") (str.to_re "Nm^")))) (re.++ (re.union (str.to_re "L>") (re.union (str.to_re "6:") (re.union (str.to_re "Pe") (str.to_re "I")))) (re.++ (re.union (str.to_re "e") (re.union (str.to_re "g") (re.union (str.to_re "LN") (str.to_re "9")))) (re.union (str.to_re "4") (re.union (str.to_re "\\") (re.union (str.to_re "T@") (str.to_re "i")))))))) ((_ re.loop 1 201) (re.++ (re.union (str.to_re "1") (re.union (str.to_re "X") (re.union (str.to_re "V") (str.to_re "`iE")))) (re.++ (re.union (str.to_re "}") (re.union (str.to_re "eak") (re.union (str.to_re "EO") (str.to_re "]^,")))) (re.++ (re.union (str.to_re "i") (re.union (str.to_re "m5Z") (re.union (str.to_re "&'") (str.to_re "-Q")))) (re.union (str.to_re "D$") (re.union (str.to_re "51+") (re.union (str.to_re "G7") (str.to_re "u("))))))))))))))
(assert (not (str.in_re var0 (re.++ (re.* re.allchar) (re.++ (re.union (str.to_re "<") (re.union (str.to_re ">") (re.union (str.to_re "'") (re.union (str.to_re "\u0022") (str.to_re "&"))))) (re.* re.allchar))))))
(assert (<= 50 (str.len var0)))
(check-sat)
(get-model)
